JulietBench/Juliet_Based_Patch_Bench/linux/CWE-190-Integer-Overflow-or-Wraparound/CVE_2016_8636_647bf3d8a8e5777319da92af672289b2a6c4dc66/Resultmem_check_rangeEQ.smt2
; benchmark generated from python API
(set-info :status unknown)
(declare-fun R () (_ BitVec 32))
(declare-fun rdi () (_ BitVec 64))
(declare-fun rcx () (_ BitVec 64))
(declare-fun rsi () (_ BitVec 64))
(declare-fun r8 () (_ BitVec 64))
(declare-fun rdx () (_ BitVec 64))
(assert
 (let (($x1884 (= (_ bv0 32) R)))
 (let ((?x6 ((_ extract 31 0) rdi)))
 (let (($x11 (= (_ bv1 32) ?x6)))
 (let (($x3329 (and $x11 $x1884)))
 (let (($x1888 (= (_ bv4294967212 32) R)))
 (let (($x46 (= (_ bv0 32) ?x6)))
 (let (($x2678 (and $x46 $x1888)))
 (let (($x37 (and (distinct (_ bv1 32) ?x6) true)))
 (let (($x118 (and (distinct (_ bv0 32) ?x6) true)))
 (let ((?x42 (bvsub ?x6 (_ bv2 32))))
 (let (($x184 (bvugt ?x42 (_ bv1 32))))
 (let (($x2677 (and $x184 $x118 $x37 $x1888)))
 (let (($x47 (bvule ?x42 (_ bv1 32))))
 (let (($x192 (bvult rsi rcx)))
 (let (($x2674 (and $x192 $x47 $x118 $x37 $x1888)))
 (let (($x208 (bvuge rsi rcx)))
 (let (($x1889 (bvugt rdx r8)))
 (let (($x3339 (and $x1889 $x208 $x47 $x118 $x37 $x1888)))
 (let (($x1879 (bvule rdx r8)))
 (let ((?x218 (bvadd r8 rcx)))
 (let ((?x1901 (bvsub ?x218 rdx)))
 (let (($x1903 (bvule rsi ?x1901)))
 (let (($x3342 (and $x1903 $x1879 $x208 $x47 $x118 $x37 $x1884)))
 (let (($x1908 (bvugt rsi ?x1901)))
 (let (($x3341 (and $x1908 $x1879 $x208 $x47 $x118 $x37 $x1888)))
 (let (($x3340 (or $x3341 $x3342 $x3339 $x2674 $x2677 $x2678 $x3329)))
 (let ((?x216 (bvadd rsi rdx)))
 (let (($x219 (bvule ?x216 ?x218)))
 (let (($x1886 (and $x219 $x208 $x47 $x118 $x37 $x1884)))
 (let (($x1866 (bvugt ?x216 ?x218)))
 (let (($x1882 (and $x1866 $x208 $x47 $x118 $x37 $x1888)))
 (let (($x3330 (or $x1882 $x1886 $x2674 $x2677 $x2678 $x3329)))
 (and $x3330 $x3340))))))))))))))))))))))))))))))))))
(check-sat)
